Problem:    
Rows:       105
Columns:    45 (34 integer, 34 binary)
Non-zeros:  302
Status:     INTEGER OPTIMAL
Objective:  value = 125.35015 (MINimum)

   No.   Row name        Activity     Lower bound   Upper bound
------ ------------    ------------- ------------- -------------
     1 r.5                    125.35             0               
     2 r.6                   54.1337       -275.82               
     3 r.7                    625.35             0               
     4 r.8                   -374.65      -425.257               
     5 r.9                    625.35             0               
     6 r.10                 -423.221      -477.355               
     7 r.11                   125.35             0               
     8 r.12                  6.85185      -488.105               
     9 r.13                   625.35             0               
    10 r.14                  -374.65      -451.428               
    11 r.15                   125.35             0               
    12 r.16                 -5.04345      -484.253               
    13 r.17                   125.35             0               
    14 r.18                 -170.046      -366.462               
    15 r.19                   625.35             0               
    16 r.20                 -449.392      -456.244               
    17 r.21                   625.35             0               
    18 r.22                 -498.803      -498.803               
    19 r.23                   125.35             0               
    20 r.24                  1.19686      -498.193               
    21 r.25                        1             1             = 
    22 r.26                        1             1             = 
    23 r.27                        1             1             = 
    24 r.28                        1             1             = 
    25 r.29                        1             1             = 
    26 r.30                  22.6449       22.6449               
    27 r.31                 -22.6449       -275.82               
    28 r.32                  381.502       11.8953               
    29 r.33                 -381.502      -425.257               
    30 r.34                  71.2165       48.5716               
    31 r.35                 -71.2165       -275.82               
    32 r.36                  369.606       15.7472               
    33 r.37                 -369.606      -425.257               
    34 r.38                   275.82       133.538               
    35 r.39                  -275.82       -275.82               
    36 r.40                  425.257       43.7557               
    37 r.41                 -425.257      -425.257               
    38 r.42                  52.9368      -272.179               
    39 r.43                 -375.847      -419.602               
    40 r.44                  52.9368      -272.179               
    41 r.45                 -375.847      -419.602               
    42 r.46                  477.355        224.18               
    43 r.47                 -477.355      -477.355               
    44 r.48                  118.498       74.7426               
    45 r.49                 -118.498      -488.105               
    46 r.50                  48.5716       48.5716               
    47 r.51                 -48.5716      -477.355               
    48 r.52                  488.105       15.7472               
    49 r.53                 -488.105      -488.105               
    50 r.54                  253.175       133.538               
    51 r.55                 -253.175      -477.355               
    52 r.56                  43.7557       43.7557               
    53 r.57                 -43.7557      -488.105               
    54 r.58                 -424.418      -473.714               
    55 r.59                  5.65499       -482.45               
    56 r.60                 -424.418      -473.714               
    57 r.61                  5.65499       -482.45               
    58 r.62                  428.784        224.18               
    59 r.63                 -428.784      -451.428               
    60 r.64                  130.394       74.7426               
    61 r.65                 -130.394      -484.253               
    62 r.66                  451.428       22.6449               
    63 r.67                 -451.428      -451.428               
    64 r.68                  11.8953       11.8953               
    65 r.69                 -11.8953      -484.253               
    66 r.70                  204.604       133.538               
    67 r.71                 -204.604      -451.428               
    68 r.72                   55.651       43.7557               
    69 r.73                  -55.651      -484.253               
    70 r.74                 -375.847      -447.788               
    71 r.75                 -6.24031      -478.598               
    72 r.76                 -375.847      -447.788               
    73 r.77                 -6.24031      -478.598               
    74 r.78                   224.18        224.18               
    75 r.79                  -224.18      -366.462               
    76 r.80                  74.7426       74.7426               
    77 r.81                 -74.7426      -456.244               
    78 r.82                  246.825       22.6449               
    79 r.83                 -246.825      -366.462               
    80 r.84                  456.244       11.8953               
    81 r.85                 -456.244      -456.244               
    82 r.86                  295.396       48.5716               
    83 r.87                 -295.396      -366.462               
    84 r.88                  444.349       15.7472               
    85 r.89                 -444.349      -456.244               
    86 r.90                 -171.243      -362.822               
    87 r.91                 -450.589      -450.589               
    88 r.92                 -171.243      -362.822               
    89 r.93                 -450.589      -450.589               
    90 r.94                  52.9368      -272.179               
    91 r.95                 -375.847      -419.602               
    92 r.96                  52.9368      -272.179               
    93 r.97                 -375.847      -419.602               
    94 r.98                 -424.418      -473.714               
    95 r.99                  5.65499       -482.45               
    96 r.100                -424.418      -473.714               
    97 r.101                 5.65499       -482.45               
    98 r.102                -375.847      -447.788               
    99 r.103                -6.24031      -478.598               
   100 r.104                -375.847      -447.788               
   101 r.105                -6.24031      -478.598               
   102 r.106                -171.243      -362.822               
   103 r.107                -450.589      -450.589               
   104 r.108                -171.243      -362.822               
   105 r.109                -450.589      -450.589               

   No. Column name       Activity     Lower bound   Upper bound
------ ------------    ------------- ------------- -------------
     1 tt                     125.35             0               
     2 s_1_1        *              0             0             1 
     3 t_1_1                 71.2165             0               
     4 s_2_1        *              1             0             1 
     5 t_2_1                       0             0               
     6 s_1_2        *              1             0             1 
     7 t_1_2                 48.5716             0               
     8 s_2_2        *              0             0             1 
     9 t_2_2                 118.498             0               
    10 s_1_3        *              1             0             1 
    11 t_1_3                       0             0               
    12 s_2_3        *              0             0             1 
    13 t_2_3                 130.394             0               
    14 s_1_4        *              0             0             1 
    15 t_1_4                 295.396             0               
    16 s_2_4        *              1             0             1 
    17 t_2_4                 74.7426             0               
    18 s_1_5        *              1             0             1 
    19 t_1_5                 124.153             0               
    20 s_2_5        *              0             0             1 
    21 t_2_5                 124.153             0               
    22 u_1_1_2      *              0             0             1 
    23 u_2_1_2      *              1             0             1 
    24 u_1_1_3      *              0             0             1 
    25 u_2_1_3      *              1             0             1 
    26 u_1_1_4      *              1             0             1 
    27 u_2_1_4      *              1             0             1 
    28 u_1_2_1      *              1             0             1 
    29 u_2_2_1      *              0             0             1 
    30 u_1_2_3      *              0             0             1 
    31 u_2_2_3      *              1             0             1 
    32 u_1_2_4      *              1             0             1 
    33 u_2_2_4      *              0             0             1 
    34 u_1_3_1      *              1             0             1 
    35 u_2_3_1      *              0             0             1 
    36 u_1_3_2      *              1             0             1 
    37 u_2_3_2      *              0             0             1 
    38 u_1_3_4      *              1             0             1 
    39 u_2_3_4      *              0             0             1 
    40 u_1_4_1      *              0             0             1 
    41 u_2_4_1      *              0             0             1 
    42 u_1_4_2      *              0             0             1 
    43 u_2_4_2      *              1             0             1 
    44 u_1_4_3      *              0             0             1 
    45 u_2_4_3      *              1             0             1 

Integer feasibility conditions:

KKT.PE: max.abs.err = 0.00e+00 on row 0
        max.rel.err = 0.00e+00 on row 0
        High quality

KKT.PB: max.abs.err = 5.68e-14 on row 18
        max.rel.err = 6.89e-16 on row 64
        High quality

End of output
